NAME : 
COMMENT : 
TYPE : CVRP
DIMENSION : 19
EDGE_WEIGHT_TYPE : EUC_2D 
CAPACITY : 5
NODE_COORD_SECTION 
 1 38 48
 2 15 30
 3 25 55
 4 10 40
 5 52 60
 6 35 63
 7 14 20
 8 15 60
 9 44 20
 10 52 8
 11 62 20
 12 43 22
 13 38 40
 14 32 65
 15 8 6
 16 10 15
 17 15 54
 18 25 24
 19 50 52
DEMAND_SECTION 
1 0 
2 0.3 
3 0.5 
4 1.0
5 1.3 
6 0.9
7 1.2 
8 1.5 
9 0.4
10 1.5 
11 0.2 
12 0.4 
13 1.0 
14 1.1 
15 1.3 
16 1.5 
17 1.0 
18 0.5 
19 0.6 
DEPOT_SECTION 
 1  
 -1  
EOF 
